
Log started (V11.0.0) Thu May 15 13:28:42 2008

Tried aggregator 1 time.
Reduced MIP has 110 rows, 1001 columns, and 2010 nonzeros.
Presolve time =   -0.00 sec.
Clique table members: 100.
MIP emphasis: balance optimality and feasibility.
MIP search method: dynamic search.
Parallel mode: none, using 1 thread.
Root relaxation solution time =    0.01 sec.

        Nodes                                         Cuts/
   Node  Left     Objective  IInf  Best Integer     Best Node    ItCnt     Gap

*     0+    0                       105201.0000    10077.8838      157   90.42%
*     0+    0                        10117.0000    10077.8838      157    0.39%
      0     0    10079.9791    25    10117.0000      Fract: 8      181    0.37%
      0     0    10080.4776    29    10117.0000       Cuts: 3      199    0.36%
      0     0    10082.5764    25    10117.0000    MIRcuts: 2      230    0.34%
*     0+    0                        10115.0000    10082.5764      230    0.32%
      0     0    10083.4114    27    10115.0000    MIRcuts: 3      246    0.31%
      0     0    10083.6543    29    10115.0000     Covers: 1      254    0.31%
      0     0    10083.6786    33    10115.0000    MIRcuts: 1      259    0.31%
*     0+    0                        10104.0000    10083.6786      259    0.20%
*     0+    0                        10100.0000    10083.6786      259    0.16%
      0     2    10084.0000    30    10100.0000    10083.6786      259    0.16%
    100    72    10093.0000    17    10100.0000    10084.0000     2003    0.16%
    200   131    10090.0000    20    10100.0000    10084.0000     3257    0.16%
    300   198    10090.0000    19    10100.0000    10084.0000     4656    0.16%
    400   282    10096.0000    16    10100.0000    10084.0000     6021    0.16%
    500   353    10097.0000    15    10100.0000    10097.0000    10329    0.03%
    600   372    10097.0000    14    10100.0000    10097.0000    12502    0.03%
    700   366    infeasible          10100.0000    10097.0000    14677    0.03%
    800   352    10097.0000    21    10100.0000    10097.0000    16778    0.03%
    900   336    10097.0000    15    10100.0000    10097.0000    18623    0.03%
   1000   376    10097.0000    16    10100.0000    10097.0000    23218    0.03%
Elapsed time =   4.01 sec. (tree size =  0.17 MB, solutions = 5)
   1100   462    10097.0000    19    10100.0000    10097.0000    28574    0.03%
   1200   536    10097.0000    18    10100.0000    10097.0000    31424    0.03%
   1300   597    10097.0000    21    10100.0000    10097.0000    34054    0.03%
   1400   671    10097.0000    14    10100.0000    10097.0000    37361    0.03%
   1500   711    10097.0000    23    10100.0000    10097.0000    41168    0.03%
   1600   789    10097.0000    20    10100.0000    10097.0000    42895    0.03%
   1700   857    10097.0000    20    10100.0000    10097.0000    45679    0.03%
   1800   929    10097.0000    16    10100.0000    10097.0000    47495    0.03%
*  1801+  845                        10099.0000    10097.0000    47498    0.02%
   1900   921    10097.0000    22    10099.0000    10097.0000    49585    0.02%
   2000  1005    10097.0000    16    10099.0000    10097.0000    51957    0.02%
Elapsed time =   7.19 sec. (tree size =  0.47 MB, solutions = 6)
   2100  1044    10097.0000    28    10099.0000    10097.0000    58956    0.02%
   2200  1119    infeasible          10099.0000    10097.0000    61662    0.02%
   2300  1191    10097.0000    21    10099.0000    10097.0000    65298    0.02%
   2400  1221    10098.0000    18    10099.0000    10097.0000    70549    0.02%
   2500  1239    infeasible          10099.0000    10097.0000    79841    0.02%
   2600  1292    10098.0000    26    10099.0000    10097.0000    83776    0.02%
   2700  1318    10098.0000    25    10099.0000    10097.0000    91166    0.02%
   2800  1364    10098.0000    33    10099.0000    10097.0000    99495    0.02%
   2900  1444    10097.0000    14    10099.0000    10097.0000   102780    0.02%
   3000  1523    10097.0000    16    10099.0000    10097.0000   105964    0.02%
Elapsed time =  12.76 sec. (tree size =  0.74 MB, solutions = 6)
   3100  1588    10097.9930    34    10099.0000    10097.0000   110350    0.02%
   3200  1669    10097.0000    14    10099.0000    10097.0000   114035    0.02%
   3300  1743    10097.0000    18    10099.0000    10097.0000   116468    0.02%
   3400  1792    10097.0000    24    10099.0000    10097.0000   120066    0.02%
   3500  1876    infeasible          10099.0000    10097.0000   124846    0.02%
   3600  1963    10097.0000    21    10099.0000    10097.0000   126551    0.02%
   3700  1999    10097.0000    16    10099.0000    10097.0000   138009    0.02%
   3800  2071    10097.0000    31    10099.0000    10097.0000   139823    0.02%
   3900  2147    10097.0000    26    10099.0000    10097.0000   146278    0.02%
   4000  2212        cutoff          10099.0000    10097.0000   150665    0.02%
Elapsed time =  18.03 sec. (tree size =  1.12 MB, solutions = 6)
   4100  2289    10097.0000    31    10099.0000    10097.0000   153885    0.02%
   4200  2367    10097.0000    50    10099.0000    10097.0000   160896    0.02%
   4300  2436    10097.0000    34    10099.0000    10097.0000   165959    0.02%
   4400  2520        cutoff          10099.0000    10097.0000   172292    0.02%
   4500  2589    10097.0000    15    10099.0000    10097.0000   180617    0.02%
   4600  2667    10098.0000    22    10099.0000    10097.0000   191841    0.02%
   4700  2755    10097.0000    23    10099.0000    10097.0000   197219    0.02%
   4800  2812    10097.0000    35    10099.0000    10097.0000   208190    0.02%
   4900  2868    10097.0000    53    10099.0000    10097.0000   217861    0.02%
   5000  2953    10098.0000    24    10099.0000    10097.0000   221586    0.02%
Elapsed time =  28.91 sec. (tree size =  1.50 MB, solutions = 6)
   5100  3012    10097.0000    29    10099.0000    10097.0000   231453    0.02%
   5200  3099    10097.0000    18    10099.0000    10097.0000   236632    0.02%
   5300  3173    infeasible          10099.0000    10097.0000   239760    0.02%
   5400  3242    10097.0000     8    10099.0000    10097.0000   247012    0.02%
*  5491+    1                        10097.0000    10097.0000   254666    0.00%

Cover cuts applied:  373
Flow cuts applied:  4
Mixed integer rounding cuts applied:  2
Gomory fractional cuts applied:  9

Solution pool: 7 solutions saved.

MIP - Integer optimal solution:  Objective = 1.0097000000e+004
Solution time =   34.33 sec.  Iterations = 254666  Nodes = 5491


Incumbent solution
Variable Name           Solution Value
Cmax                      10097.000000
X_1_9                         1.000000
X_2_8                         1.000000
X_3_9                         1.000000
X_4_5                         1.000000
X_5_2                         1.000000
X_6_8                         1.000000
X_7_9                         1.000000
X_8_8                         1.000000
X_9_7                         1.000000
X_10_3                        1.000000
X_11_4                        1.000000
X_12_2                        1.000000
X_13_7                        1.000000
X_14_1                        1.000000
X_15_5                        1.000000
X_16_1                        1.000000
X_17_8                        1.000000
X_18_6                        1.000000
X_19_1                        1.000000
X_20_4                        1.000000
X_21_4                        1.000000
X_22_5                        1.000000
X_23_7                        1.000000
X_24_3                        1.000000
X_25_10                       1.000000
X_26_6                        1.000000
X_27_2                        1.000000
X_28_2                        1.000000
X_29_4                        1.000000
X_30_10                       1.000000
X_31_1                        1.000000
X_32_1                        1.000000
X_33_9                        1.000000
X_34_10                       1.000000
X_35_7                        1.000000
X_36_5                        1.000000
X_37_2                        1.000000
X_38_3                        1.000000
X_39_10                       1.000000
X_40_10                       1.000000
X_41_4                        1.000000
X_42_5                        1.000000
X_43_3                        1.000000
X_44_1                        1.000000
X_45_1                        1.000000
X_46_7                        1.000000
X_47_4                        1.000000
X_48_9                        1.000000
X_49_6                        1.000000
X_50_4                        1.000000
X_51_9                        1.000000
X_52_6                        1.000000
X_53_5                        1.000000
X_54_8                        1.000000
X_55_4                        1.000000
X_56_7                        1.000000
X_57_8                        1.000000
X_58_10                       1.000000
X_59_3                        1.000000
X_60_3                        1.000000
X_61_9                        1.000000
X_62_10                       1.000000
X_63_5                        1.000000
X_64_2                        1.000000
X_65_1                        1.000000
X_66_6                        1.000000
X_67_3                        1.000000
X_68_6                        1.000000
X_69_2                        1.000000
X_70_7                        1.000000
X_71_6                        1.000000
X_72_2                        1.000000
X_73_1                        1.000000
X_74_5                        1.000000
X_75_3                        1.000000
X_76_9                        1.000000
X_77_8                        1.000000
X_78_5                        1.000000
X_79_7                        1.000000
X_80_5                        1.000000
X_81_8                        1.000000
X_82_3                        1.000000
X_83_3                        1.000000
X_84_10                       1.000000
X_85_4                        1.000000
X_86_7                        1.000000
X_87_2                        1.000000
X_88_6                        1.000000
X_89_9                        1.000000
X_90_8                        1.000000
X_91_7                        1.000000
X_92_8                        1.000000
X_93_4                        1.000000
X_94_6                        1.000000
X_95_10                       1.000000
X_96_9                        1.000000
X_97_6                        1.000000
X_98_10                       1.000000
X_99_2                        1.000000
X_100_1                       1.000000
All other variables in the range 1-1001 are 0.
